unsat
(define-fun f ((x (_ BitVec 64))) (_ BitVec 64) (im (bvand #b0000000000000000000000000000000000000000000000000000000000000001 x) (bvnot x) (shesh x)))
0.13user 0.00system 0:00.14elapsed 100%CPU (0avgtext+0avgdata 37848maxresident)k
0inputs+8outputs (0major+4122minor)pagefaults 0swaps
